\ Model MTZ_MODEL
\ LP format - for model browsing. Use MPS format to capture full model detail.
Minimize
  p[0,1] + p[0,2] + p[0,3] + p[0,4] + p[1,0] + p[1,2] + p[1,3] + p[1,4]
   + p[2,0] + p[2,1] + p[2,3] + p[2,4] + p[3,0] + p[3,1] + p[3,2] + p[3,4]
   + p[4,0] + p[4,1] + p[4,2] + p[4,3] + dc[0] + dc[1] + dc[2] + dc[3]
   + dc[4]
Subject To
 p2: p[0,1] - 13.37016184169475 z[0,1] >= 0
 p3: p[0,1] - 71.21550172480694 z[0,1] - dcc[0,1] >= -71.21550172480694
 R2: dcc[0,1] <= 71.21550172480694
 R3: x[0,1,0] - x[1,0,0] + dif[0,1,0] >= 0
 R4: - x[0,1,0] + x[1,0,0] + dif[0,1,0] >= 0
 R5: x[0,1,1] - x[1,0,1] + dif[0,1,1] >= 0
 R6: - x[0,1,1] + x[1,0,1] + dif[0,1,1] >= 0
 p2: p[0,2] - 7.399520803360192 z[0,2] >= 0
 p3: p[0,2] - 61.44505343328612 z[0,2] - dcc[0,2] >= -61.44505343328612
 R9: dcc[0,2] <= 61.44505343328612
 R10: x[0,1,0] - x[2,0,0] + dif[0,2,0] >= 0
 R11: - x[0,1,0] + x[2,0,0] + dif[0,2,0] >= 0
 R12: x[0,1,1] - x[2,0,1] + dif[0,2,1] >= 0
 R13: - x[0,1,1] + x[2,0,1] + dif[0,2,1] >= 0
 p2: p[0,3] - 12.78627447048851 z[0,3] >= 0
 p3: p[0,3] - 67.89613443960221 z[0,3] - dcc[0,3] >= -67.89613443960221
 R16: dcc[0,3] <= 67.89613443960221
 R17: x[0,1,0] - x[3,0,0] + dif[0,3,0] >= 0
 R18: - x[0,1,0] + x[3,0,0] + dif[0,3,0] >= 0
 R19: x[0,1,1] - x[3,0,1] + dif[0,3,1] >= 0
 R20: - x[0,1,1] + x[3,0,1] + dif[0,3,1] >= 0
 p2: p[0,4] + 1.534086918088105 z[0,4] >= 0
 p3: p[0,4] - 49.48327674753786 z[0,4] - dcc[0,4] >= -49.48327674753786
 R23: dcc[0,4] <= 49.48327674753786
 R24: x[0,1,0] - x[4,0,0] + dif[0,4,0] >= 0
 R25: - x[0,1,0] + x[4,0,0] + dif[0,4,0] >= 0
 R26: x[0,1,1] - x[4,0,1] + dif[0,4,1] >= 0
 R27: - x[0,1,1] + x[4,0,1] + dif[0,4,1] >= 0
 p2: p[1,0] - 13.37016184169475 z[1,0] >= 0
 p3: p[1,0] - 71.21550172480694 z[1,0] - dcc[1,0] >= -71.21550172480694
 R30: dcc[1,0] <= 71.21550172480694
 R31: - x[0,0,0] + x[1,1,0] + dif[1,0,0] >= 0
 R32: x[0,0,0] - x[1,1,0] + dif[1,0,0] >= 0
 R33: - x[0,0,1] + x[1,1,1] + dif[1,0,1] >= 0
 R34: x[0,0,1] - x[1,1,1] + dif[1,0,1] >= 0
 p2: p[1,2] + 7.566146511448232 z[1,2] >= 0
 p3: p[1,2] - 44.25014005099793 z[1,2] - dcc[1,2] >= -44.25014005099793
 R37: dcc[1,2] <= 44.25014005099793
 R38: x[1,1,0] - x[2,0,0] + dif[1,2,0] >= 0
 R39: - x[1,1,0] + x[2,0,0] + dif[1,2,0] >= 0
 R40: x[1,1,1] - x[2,0,1] + dif[1,2,1] >= 0
 R41: - x[1,1,1] + x[2,0,1] + dif[1,2,1] >= 0
 p2: p[1,3] - 43.60788074185573 z[1,3] >= 0
 p3: p[1,3] - 97.8310304778949 z[1,3] - dcc[1,3] >= -97.8310304778949
 R44: dcc[1,3] <= 97.8310304778949
 R45: x[1,1,0] - x[3,0,0] + dif[1,3,0] >= 0
 R46: - x[1,1,0] + x[3,0,0] + dif[1,3,0] >= 0
 R47: x[1,1,1] - x[3,0,1] + dif[1,3,1] >= 0
 R48: - x[1,1,1] + x[3,0,1] + dif[1,3,1] >= 0
 p2: p[1,4] - 40.02703151868075 z[1,4] >= 0
 p3: p[1,4] - 90.61707842287566 z[1,4] - dcc[1,4] >= -90.61707842287566
 R51: dcc[1,4] <= 90.61707842287566
 R52: x[1,1,0] - x[4,0,0] + dif[1,4,0] >= 0
 R53: - x[1,1,0] + x[4,0,0] + dif[1,4,0] >= 0
 R54: x[1,1,1] - x[4,0,1] + dif[1,4,1] >= 0
 R55: - x[1,1,1] + x[4,0,1] + dif[1,4,1] >= 0
 p2: p[2,0] - 7.39952080336019 z[2,0] >= 0
 p3: p[2,0] - 61.44505343328612 z[2,0] - dcc[2,0] >= -61.44505343328612
 R58: dcc[2,0] <= 61.44505343328612
 R59: - x[0,0,0] + x[2,1,0] + dif[2,0,0] >= 0
 R60: x[0,0,0] - x[2,1,0] + dif[2,0,0] >= 0
 R61: - x[0,0,1] + x[2,1,1] + dif[2,0,1] >= 0
 R62: x[0,0,1] - x[2,1,1] + dif[2,0,1] >= 0
 p2: p[2,1] + 7.566146511448232 z[2,1] >= 0
 p3: p[2,1] - 44.25014005099793 z[2,1] - dcc[2,1] >= -44.25014005099793
 R65: dcc[2,1] <= 44.25014005099793
 R66: - x[1,0,0] + x[2,1,0] + dif[2,1,0] >= 0
 R67: x[1,0,0] - x[2,1,0] + dif[2,1,0] >= 0
 R68: - x[1,0,1] + x[2,1,1] + dif[2,1,1] >= 0
 R69: x[1,0,1] - x[2,1,1] + dif[2,1,1] >= 0
 p2: p[2,3] - 45.03534292247809 z[2,3] >= 0
 p3: p[2,3] - 95.73512855035554 z[2,3] - dcc[2,3] >= -95.73512855035554
 R72: dcc[2,3] <= 95.73512855035554
 R73: x[2,1,0] - x[3,0,0] + dif[2,3,0] >= 0
 R74: - x[2,1,0] + x[3,0,0] + dif[2,3,0] >= 0
 R75: x[2,1,1] - x[3,0,1] + dif[2,3,1] >= 0
 R76: - x[2,1,1] + x[3,0,1] + dif[2,3,1] >= 0
 p2: p[2,4] - 34.98620743775977 z[2,4] >= 0
 p3: p[2,4] - 81.59349676214948 z[2,4] - dcc[2,4] >= -81.59349676214948
 R79: dcc[2,4] <= 81.59349676214948
 R80: x[2,1,0] - x[4,0,0] + dif[2,4,0] >= 0
 R81: - x[2,1,0] + x[4,0,0] + dif[2,4,0] >= 0
 R82: x[2,1,1] - x[4,0,1] + dif[2,4,1] >= 0
 R83: - x[2,1,1] + x[4,0,1] + dif[2,4,1] >= 0
 p2: p[3,0] - 12.78627447048851 z[3,0] >= 0
 p3: p[3,0] - 67.89613443960221 z[3,0] - dcc[3,0] >= -67.89613443960221
 R86: dcc[3,0] <= 67.89613443960221
 R87: - x[0,0,0] + x[3,1,0] + dif[3,0,0] >= 0
 R88: x[0,0,0] - x[3,1,0] + dif[3,0,0] >= 0
 R89: - x[0,0,1] + x[3,1,1] + dif[3,0,1] >= 0
 R90: x[0,0,1] - x[3,1,1] + dif[3,0,1] >= 0
 p2: p[3,1] - 43.60788074185573 z[3,1] >= 0
 p3: p[3,1] - 97.8310304778949 z[3,1] - dcc[3,1] >= -97.8310304778949
 R93: dcc[3,1] <= 97.8310304778949
 R94: - x[1,0,0] + x[3,1,0] + dif[3,1,0] >= 0
 R95: x[1,0,0] - x[3,1,0] + dif[3,1,0] >= 0
 R96: - x[1,0,1] + x[3,1,1] + dif[3,1,1] >= 0
 R97: x[1,0,1] - x[3,1,1] + dif[3,1,1] >= 0
 p2: p[3,2] - 45.03534292247809 z[3,2] >= 0
 p3: p[3,2] - 95.73512855035554 z[3,2] - dcc[3,2] >= -95.73512855035554
 R100: dcc[3,2] <= 95.73512855035554
 R101: - x[2,0,0] + x[3,1,0] + dif[3,2,0] >= 0
 R102: x[2,0,0] - x[3,1,0] + dif[3,2,0] >= 0
 R103: - x[2,0,1] + x[3,1,1] + dif[3,2,1] >= 0
 R104: x[2,0,1] - x[3,1,1] + dif[3,2,1] >= 0
 p2: p[3,4] - 5.710237172425069 z[3,4] >= 0
 p3: p[3,4] - 53.38185383600255 z[3,4] - dcc[3,4] >= -53.38185383600255
 R107: dcc[3,4] <= 53.38185383600255
 R108: x[3,1,0] - x[4,0,0] + dif[3,4,0] >= 0
 R109: - x[3,1,0] + x[4,0,0] + dif[3,4,0] >= 0
 R110: x[3,1,1] - x[4,0,1] + dif[3,4,1] >= 0
 R111: - x[3,1,1] + x[4,0,1] + dif[3,4,1] >= 0
 p2: p[4,0] + 1.534086918088105 z[4,0] >= 0
 p3: p[4,0] - 49.48327674753786 z[4,0] - dcc[4,0] >= -49.48327674753786
 R114: dcc[4,0] <= 49.48327674753786
 R115: - x[0,0,0] + x[4,1,0] + dif[4,0,0] >= 0
 R116: x[0,0,0] - x[4,1,0] + dif[4,0,0] >= 0
 R117: - x[0,0,1] + x[4,1,1] + dif[4,0,1] >= 0
 R118: x[0,0,1] - x[4,1,1] + dif[4,0,1] >= 0
 p2: p[4,1] - 40.02703151868075 z[4,1] >= 0
 p3: p[4,1] - 90.61707842287566 z[4,1] - dcc[4,1] >= -90.61707842287566
 R121: dcc[4,1] <= 90.61707842287566
 R122: - x[1,0,0] + x[4,1,0] + dif[4,1,0] >= 0
 R123: x[1,0,0] - x[4,1,0] + dif[4,1,0] >= 0
 R124: - x[1,0,1] + x[4,1,1] + dif[4,1,1] >= 0
 R125: x[1,0,1] - x[4,1,1] + dif[4,1,1] >= 0
 p2: p[4,2] - 34.98620743775977 z[4,2] >= 0
 p3: p[4,2] - 81.59349676214948 z[4,2] - dcc[4,2] >= -81.59349676214948
 R128: dcc[4,2] <= 81.59349676214948
 R129: - x[2,0,0] + x[4,1,0] + dif[4,2,0] >= 0
 R130: x[2,0,0] - x[4,1,0] + dif[4,2,0] >= 0
 R131: - x[2,0,1] + x[4,1,1] + dif[4,2,1] >= 0
 R132: x[2,0,1] - x[4,1,1] + dif[4,2,1] >= 0
 p2: p[4,3] - 5.710237172425069 z[4,3] >= 0
 p3: p[4,3] - 53.38185383600255 z[4,3] - dcc[4,3] >= -53.38185383600255
 R135: dcc[4,3] <= 53.38185383600255
 R136: - x[3,0,0] + x[4,1,0] + dif[4,3,0] >= 0
 R137: x[3,0,0] - x[4,1,0] + dif[4,3,0] >= 0
 R138: - x[3,0,1] + x[4,1,1] + dif[4,3,1] >= 0
 R139: x[3,0,1] - x[4,1,1] + dif[4,3,1] >= 0
 R140: z[0,1] + z[0,2] + z[0,3] + z[0,4] = 1
 R141: z[1,0] + z[1,2] + z[1,3] + z[1,4] = 1
 R142: z[2,0] + z[2,1] + z[2,3] + z[2,4] = 1
 R143: z[3,0] + z[3,1] + z[3,2] + z[3,4] = 1
 R144: z[4,0] + z[4,1] + z[4,2] + z[4,3] = 1
 R145: z[1,0] + z[2,0] + z[3,0] + z[4,0] = 1
 R146: z[0,1] + z[2,1] + z[3,1] + z[4,1] = 1
 R147: z[0,2] + z[1,2] + z[3,2] + z[4,2] = 1
 R148: z[0,3] + z[1,3] + z[2,3] + z[4,3] = 1
 R149: z[0,4] + z[1,4] + z[2,4] + z[3,4] = 1
 rest7: z[0,1] + z[1,0] <= 1
 rest7: z[0,2] + z[2,0] <= 1
 rest7: z[0,3] + z[3,0] <= 1
 rest7: z[0,4] + z[4,0] <= 1
 rest7: z[0,1] + z[1,0] <= 1
 rest7: z[1,2] + z[2,1] <= 1
 rest7: z[1,3] + z[3,1] <= 1
 rest7: z[1,4] + z[4,1] <= 1
 rest7: z[0,2] + z[2,0] <= 1
 rest7: z[1,2] + z[2,1] <= 1
 rest7: z[2,3] + z[3,2] <= 1
 rest7: z[2,4] + z[4,2] <= 1
 rest7: z[0,3] + z[3,0] <= 1
 rest7: z[1,3] + z[3,1] <= 1
 rest7: z[2,3] + z[3,2] <= 1
 rest7: z[3,4] + z[4,3] <= 1
 rest7: z[0,4] + z[4,0] <= 1
 rest7: z[1,4] + z[4,1] <= 1
 rest7: z[2,4] + z[4,2] <= 1
 rest7: z[3,4] + z[4,3] <= 1
 R170: 5 z[1,2] + sc[1] - sc[2] <= 4
 R171: 5 z[1,3] + sc[1] - sc[3] <= 4
 R172: 5 z[1,4] + sc[1] - sc[4] <= 4
 R173: 5 z[2,1] - sc[1] + sc[2] <= 4
 R174: 5 z[2,3] + sc[2] - sc[3] <= 4
 R175: 5 z[2,4] + sc[2] - sc[4] <= 4
 R176: 5 z[3,1] - sc[1] + sc[3] <= 4
 R177: 5 z[3,2] - sc[2] + sc[3] <= 4
 R178: 5 z[3,4] + sc[3] - sc[4] <= 4
 R179: 5 z[4,1] - sc[1] + sc[4] <= 4
 R180: 5 z[4,2] - sc[2] + sc[4] <= 4
 R181: 5 z[4,3] - sc[3] + sc[4] <= 4
 rest10: sc[0] = 0
 rest11: sc[1] >= 1
 rest11: sc[2] >= 1
 rest11: sc[3] >= 1
 rest11: sc[4] >= 1
 R187: dc[0] <= 29.22780348558109
 R188: - x[0,0,0] + x[0,1,0] + difc[0,0] >= 0
 R189: x[0,0,0] - x[0,1,0] + difc[0,0] >= 0
 R190: - x[0,0,1] + x[0,1,1] + difc[0,1] >= 0
 R191: x[0,0,1] - x[0,1,1] + difc[0,1] >= 0
 R192: dc[1] <= 28.80510408252369
 envConv: mu[1,0] + mu[1,1] + mu[1,2] + mu[1,3] + mu[1,4] + mu[1,5]
   + mu[1,6] + mu[1,7] + mu[1,8] + mu[1,9] = 1
 inP1: x[1,0,0] - 57.21393342397381 mu[1,0] - 66.32007354716677 mu[1,1]
   - 75.95822467166596 mu[1,2] - 81.61858877019873 mu[1,3]
   - 80.65261857312288 mu[1,4] - 73.51230227121309 mu[1,5]
   - 63.5386732179083 mu[1,6] - 55.39850329179121 mu[1,7]
   - 52.90066846920264 mu[1,8] - 57.21393342397358 mu[1,9] = 0
 inP1: x[1,1,0] - 57.21393342397381 mu[1,0] - 66.32007354716677 mu[1,1]
   - 75.95822467166596 mu[1,2] - 81.61858877019873 mu[1,3]
   - 80.65261857312288 mu[1,4] - 73.51230227121309 mu[1,5]
   - 63.5386732179083 mu[1,6] - 55.39850329179121 mu[1,7]
   - 52.90066846920264 mu[1,8] - 57.21393342397358 mu[1,9] = 0
 inP1: x[1,0,1] - 70.49351921203693 mu[1,0] - 66.35149306725468 mu[1,1]
   - 69.03183099904895 mu[1,2] - 77.28037310049486 mu[1,3]
   - 87.23753484999183 mu[1,4] - 94.24424960342412 mu[1,5]
   - 95.02199765670018 mu[1,6] - 89.20686205198525 mu[1,7]
   - 79.51980936675903 mu[1,8] - 70.49351921203716 mu[1,9] = 0
 inP1: x[1,1,1] - 70.49351921203693 mu[1,0] - 66.35149306725468 mu[1,1]
   - 69.03183099904895 mu[1,2] - 77.28037310049486 mu[1,3]
   - 87.23753484999183 mu[1,4] - 94.24424960342412 mu[1,5]
   - 95.02199765670018 mu[1,6] - 89.20686205198525 mu[1,7]
   - 79.51980936675903 mu[1,8] - 70.49351921203716 mu[1,9] = 0
 R198: - x[1,0,0] + x[1,1,0] + difc[1,0] >= 0
 R199: x[1,0,0] - x[1,1,0] + difc[1,0] >= 0
 R200: - x[1,0,1] + x[1,1,1] + difc[1,1] >= 0
 R201: x[1,0,1] - x[1,1,1] + difc[1,1] >= 0
 R202: dc[2] <= 24.81772914434483
 R203: - x[2,0,0] + x[2,1,0] + difc[2,0] >= 0
 R204: x[2,0,0] - x[2,1,0] + difc[2,0] >= 0
 R205: - x[2,0,1] + x[2,1,1] + difc[2,1] >= 0
 R206: x[2,0,1] - x[2,1,1] + difc[2,1] >= 0
 R207: dc[3] <= 25.8820564835326
 R208: - x[3,0,0] + x[3,1,0] + difc[3,0] >= 0
 R209: x[3,0,0] - x[3,1,0] + difc[3,0] >= 0
 R210: - x[3,0,1] + x[3,1,1] + difc[3,1] >= 0
 R211: x[3,0,1] - x[3,1,1] + difc[3,1] >= 0
 R212: dc[4] <= 21.78956018004487
 R213: - x[4,0,0] + x[4,1,0] + difc[4,0] >= 0
 R214: x[4,0,0] - x[4,1,0] + difc[4,0] >= 0
 R215: - x[4,0,1] + x[4,1,1] + difc[4,1] >= 0
 R216: x[4,0,1] - x[4,1,1] + difc[4,1] >= 0
 qc0: [ - dcc[0,1] ^2 + dif[0,1,0] ^2 + dif[0,1,1] ^2 ] <= 0
 qc1: [ - dcc[0,2] ^2 + dif[0,2,0] ^2 + dif[0,2,1] ^2 ] <= 0
 qc2: [ - dcc[0,3] ^2 + dif[0,3,0] ^2 + dif[0,3,1] ^2 ] <= 0
 qc3: [ - dcc[0,4] ^2 + dif[0,4,0] ^2 + dif[0,4,1] ^2 ] <= 0
 qc4: [ - dcc[1,0] ^2 + dif[1,0,0] ^2 + dif[1,0,1] ^2 ] <= 0
 qc5: [ - dcc[1,2] ^2 + dif[1,2,0] ^2 + dif[1,2,1] ^2 ] <= 0
 qc6: [ - dcc[1,3] ^2 + dif[1,3,0] ^2 + dif[1,3,1] ^2 ] <= 0
 qc7: [ - dcc[1,4] ^2 + dif[1,4,0] ^2 + dif[1,4,1] ^2 ] <= 0
 qc8: [ - dcc[2,0] ^2 + dif[2,0,0] ^2 + dif[2,0,1] ^2 ] <= 0
 qc9: [ - dcc[2,1] ^2 + dif[2,1,0] ^2 + dif[2,1,1] ^2 ] <= 0
 qc10: [ - dcc[2,3] ^2 + dif[2,3,0] ^2 + dif[2,3,1] ^2 ] <= 0
 qc11: [ - dcc[2,4] ^2 + dif[2,4,0] ^2 + dif[2,4,1] ^2 ] <= 0
 qc12: [ - dcc[3,0] ^2 + dif[3,0,0] ^2 + dif[3,0,1] ^2 ] <= 0
 qc13: [ - dcc[3,1] ^2 + dif[3,1,0] ^2 + dif[3,1,1] ^2 ] <= 0
 qc14: [ - dcc[3,2] ^2 + dif[3,2,0] ^2 + dif[3,2,1] ^2 ] <= 0
 qc15: [ - dcc[3,4] ^2 + dif[3,4,0] ^2 + dif[3,4,1] ^2 ] <= 0
 qc16: [ - dcc[4,0] ^2 + dif[4,0,0] ^2 + dif[4,0,1] ^2 ] <= 0
 qc17: [ - dcc[4,1] ^2 + dif[4,1,0] ^2 + dif[4,1,1] ^2 ] <= 0
 qc18: [ - dcc[4,2] ^2 + dif[4,2,0] ^2 + dif[4,2,1] ^2 ] <= 0
 qc19: [ - dcc[4,3] ^2 + dif[4,3,0] ^2 + dif[4,3,1] ^2 ] <= 0
 inC1: - 146.9918643058184 x[0,0,0] - 78.60622586290313 x[0,0,1] + [
   x[0,0,0] ^2 + x[0,0,1] ^2 ] <= -6732.820604979532
 inC1: - 146.9918643058184 x[0,1,0] - 78.60622586290313 x[0,1,1] + [
   x[0,1,0] ^2 + x[0,1,1] ^2 ] <= -6732.820604979532
 qc22: [ - dc[0] ^2 + difc[0,0] ^2 + difc[0,1] ^2 ] <= 0
 qc23: [ - dc[1] ^2 + difc[1,0] ^2 + difc[1,1] ^2 ] <= 0
 inC1: - 165.0365038232445 x[2,0,0] - 145.0439138608403 x[2,0,1] + [
   x[2,0,0] ^2 + x[2,0,1] ^2 ] <= -11914.71621559715
 inC1: - 165.0365038232445 x[2,1,0] - 145.0439138608403 x[2,1,1] + [
   x[2,1,0] ^2 + x[2,1,1] ^2 ] <= -11914.71621559715
 qc26: [ - dc[2] ^2 + difc[2,0] ^2 + difc[2,1] ^2 ] <= 0
 inC1: - 81.11526118306617 x[3,0,0] - 32.02377993589674 x[3,0,1] + [
   x[3,0,0] ^2 + x[3,0,1] ^2 ] <= -1733.831807590753
 inC1: - 81.11526118306617 x[3,1,0] - 32.02377993589674 x[3,1,1] + [
   x[3,1,0] ^2 + x[3,1,1] ^2 ] <= -1733.831807590753
 qc29: [ - dc[3] ^2 + difc[3,0] ^2 + difc[3,1] ^2 ] <= 0
 inC1: - 140.2007487610399 x[4,0,0] - 31.14039020231378 x[4,0,1] + [
   x[4,0,0] ^2 + x[4,0,1] ^2 ] <= -5037.7972305672
 inC1: - 140.2007487610399 x[4,1,0] - 31.14039020231378 x[4,1,1] + [
   x[4,1,0] ^2 + x[4,1,1] ^2 ] <= -5037.7972305672
 qc32: [ - dc[4] ^2 + difc[4,0] ^2 + difc[4,1] ^2 ] <= 0
Bounds
 mu[1,0] <= 1
 mu[1,1] <= 1
 mu[1,2] <= 1
 mu[1,3] <= 1
 mu[1,4] <= 1
 mu[1,5] <= 1
 mu[1,6] <= 1
 mu[1,7] <= 1
 mu[1,8] <= 1
 mu[1,9] <= 1
 sc[0] <= 4
 sc[1] <= 4
 sc[2] <= 4
 sc[3] <= 4
 sc[4] <= 4
Binaries
 z[0,1] z[0,2] z[0,3] z[0,4] z[1,0] z[1,2] z[1,3] z[1,4] z[2,0] z[2,1]
 z[2,3] z[2,4] z[3,0] z[3,1] z[3,2] z[3,4] z[4,0] z[4,1] z[4,2] z[4,3]
End
